SECTION Graph
Nodes 245
Edges 436
E 1 207 2
E 1 210 1
E 2 3 1
E 2 212 3
E 2 213 2
E 3 214 2
E 4 5 10
E 4 202 4
E 4 204 2
E 4 208 3
E 5 211 4
E 5 212 2
E 5 213 3
E 6 209 5
E 6 211 2
E 6 212 4
E 7 191 2
E 7 194 1
E 7 196 6
E 7 201 10
E 8 9 1
E 8 197 3
E 8 198 2
E 9 200 2
E 9 203 1
E 10 11 10
E 10 183 4
E 10 188 2
E 10 192 3
E 11 195 4
E 11 197 2
E 11 198 3
E 12 193 5
E 12 195 2
E 12 197 4
E 13 159 2
E 13 163 1
E 13 168 1
E 13 182 10
E 14 15 1
E 14 178 3
E 14 179 2
E 15 181 2
E 15 187 1
E 16 153 2
E 16 154 1
E 16 160 3
E 16 174 10
E 17 18 2
E 17 171 2
E 17 172 2
E 18 173 2
E 18 178 1
E 19 135 2
E 19 137 1
E 19 142 8
E 19 146 10
E 20 21 1
E 20 141 3
E 20 143 2
E 21 144 2
E 21 150 1
E 22 131 1
E 22 132 1
E 22 136 3
E 22 140 10
E 23 24 2
E 23 138 2
E 24 139 2
E 24 141 1
E 25 185 12
E 25 191 6
E 25 196 2
E 25 199 5
E 26 196 10
E 26 201 6
E 26 209 2
E 26 211 5
E 27 165 4
E 27 176 2
E 27 180 5
E 28 176 10
E 28 186 4
E 28 193 2
E 28 195 5
E 29 31 3
E 29 145 1
E 29 147 2
E 30 149 10
E 30 164 1
E 30 171 2
E 30 172 2
E 31 135 8
E 31 142 2
E 32 142 10
E 32 146 8
E 32 161 2
E 32 164 3
E 33 119 9
E 33 124 1
E 33 127 6
E 34 125 10
E 34 126 9
E 34 138 6
E 35 113 5
E 35 118 1
E 35 120 1
E 35 121 1
E 36 37 5
E 36 121 10
E 36 126 1
E 37 116 10
E 37 123 1
E 38 39 1
E 38 107 10
E 38 123 4
E 39 40 1
E 39 106 10
E 40 103 10
E 40 117 3
E 41 81 6
E 41 87 1
E 42 87 10
E 42 117 5
E 43 177 66
E 43 215 6
E 44 215 9
E 44 216 1
E 45 185 64
E 45 215 1
E 45 216 9
E 46 215 3
E 47 78 4
E 47 83 1
E 47 95 10
E 48 93 4
E 48 95 3
E 48 104 1
E 48 109 4
E 49 58 7
E 49 68 6
E 49 69 1
E 49 74 10
E 50 74 3
E 50 80 7
E 51 155 12
E 51 156 13
E 52 155 1
E 52 162 5
E 53 54 10
E 53 88 1
E 54 108 1
E 54 115 3
E 55 71 10
E 55 75 1
E 56 57 10
E 56 73 5
E 56 75 3
E 57 79 5
E 57 84 3
E 57 85 3
E 58 59 10
E 58 71 1
E 58 72 1
E 59 74 7
E 59 77 1
E 59 80 3
E 60 67 3
E 60 68 1
E 60 69 6
E 61 62 10
E 61 63 9
E 61 67 1
E 61 68 3
E 62 64 9
E 62 70 3
E 63 64 10
E 63 66 1
E 65 66 222
E 66 67 9
E 68 70 10
E 69 71 7
E 70 74 6
E 72 73 1
E 72 77 10
E 73 79 10
E 75 76 1
E 75 84 10
E 76 78 1
E 76 86 10
E 77 79 1
E 77 81 3
E 78 89 10
E 79 82 3
E 80 81 1
E 81 82 1
E 82 85 5
E 82 87 6
E 83 88 5
E 83 97 10
E 84 86 1
E 84 90 3
E 85 90 3
E 85 92 4
E 86 89 1
E 86 91 3
E 87 96 5
E 88 108 10
E 89 93 3
E 89 95 4
E 90 91 1
E 90 98 4
E 91 93 1
E 91 99 4
E 92 94 1
E 92 98 3
E 93 101 4
E 94 96 1
E 94 100 3
E 95 97 1
E 96 103 3
E 96 117 10
E 97 104 3
E 97 108 5
E 98 99 1
E 98 100 1
E 99 101 1
E 99 102 1
E 100 102 1
E 100 103 1
E 101 105 1
E 101 109 4
E 102 105 1
E 102 106 1
E 103 106 1
E 104 110 4
E 104 112 5
E 105 107 1
E 105 111 4
E 106 107 1
E 107 114 4
E 108 112 3
E 109 110 1
E 109 111 1
E 110 113 1
E 110 118 5
E 111 113 1
E 111 114 1
E 112 115 1
E 112 118 4
E 113 116 1
E 114 116 1
E 114 123 10
E 115 119 4
E 116 121 5
E 118 119 1
E 119 120 1
E 120 122 1
E 120 124 9
E 121 122 1
E 122 125 9
E 122 126 10
E 124 125 1
E 124 131 9
E 125 129 6
E 127 128 2
E 127 129 2
E 128 130 1
E 128 132 2
E 129 132 2
E 129 138 10
E 130 131 1
E 130 133 3
E 132 139 10
E 133 134 1
E 133 136 2
E 134 135 1
E 134 137 2
E 136 137 1
E 136 143 10
E 137 144 10
E 138 139 2
E 139 140 1
E 140 141 2
E 140 143 3
E 142 147 3
E 143 144 1
E 144 146 1
E 145 148 2
E 145 149 2
E 146 150 2
E 147 149 1
E 147 164 10
E 148 151 2
E 148 152 2
E 149 152 2
E 150 161 8
E 151 153 1
E 151 154 2
E 152 154 2
E 152 171 10
E 153 157 3
E 154 173 10
E 155 165 5
E 156 166 5
E 156 167 5
E 157 158 1
E 157 160 2
E 158 159 1
E 158 163 2
E 159 162 1
E 160 163 1
E 160 179 10
E 161 169 3
E 162 165 1
E 162 168 2
E 163 181 10
E 164 169 2
E 165 170 2
E 166 175 5
E 166 177 6
E 167 175 5
E 167 188 12
E 168 170 1
E 168 184 10
E 169 172 1
E 170 176 4
E 170 186 10
E 171 173 2
E 173 174 1
E 174 178 2
E 174 179 3
E 175 185 6
E 175 191 12
E 176 183 5
E 177 185 5
E 179 181 1
E 180 183 2
E 180 188 4
E 181 182 1
E 182 184 1
E 182 187 2
E 183 195 10
E 184 186 1
E 187 193 6
E 188 189 3
E 189 190 1
E 189 192 2
E 190 191 1
E 190 194 2
E 192 194 1
E 192 198 10
E 194 200 10
E 196 202 5
E 198 200 1
E 199 202 2
E 199 204 4
E 200 201 1
E 201 203 2
E 202 211 10
E 203 209 6
E 204 205 3
E 205 206 1
E 205 208 2
E 206 207 1
E 206 210 2
E 207 216 53
E 208 210 1
E 208 213 10
E 210 214 10
E 213 214 1
E 1 217 100000
E 2 217 100000
E 3 217 100000
E 4 218 100000
E 5 218 100000
E 6 218 100000
E 7 219 100000
E 8 219 100000
E 9 219 100000
E 10 220 100000
E 11 220 100000
E 12 220 100000
E 13 221 100000
E 14 221 100000
E 15 221 100000
E 16 222 100000
E 17 222 100000
E 18 222 100000
E 19 223 100000
E 20 223 100000
E 21 223 100000
E 22 224 100000
E 23 224 100000
E 24 224 100000
E 25 225 100000
E 26 225 100000
E 27 226 100000
E 28 226 100000
E 29 227 100000
E 30 227 100000
E 31 228 100000
E 32 228 100000
E 33 229 100000
E 34 229 100000
E 35 230 100000
E 36 230 100000
E 37 231 100000
E 38 232 100000
E 39 233 100000
E 40 234 100000
E 41 235 100000
E 42 235 100000
E 43 236 100000
E 44 236 100000
E 45 236 100000
E 46 236 100000
E 47 237 100000
E 48 237 100000
E 49 238 100000
E 50 238 100000
E 51 239 100000
E 52 239 100000
E 53 240 100000
E 54 240 100000
E 55 241 100000
E 56 241 100000
E 57 241 100000
E 58 242 100000
E 59 242 100000
E 60 243 100000
E 61 243 100000
E 62 243 100000
E 63 244 100000
E 64 244 100000
E 65 245 100000
END

SECTION Terminals
Terminals 29
T 217
T 218
T 219
T 220
T 221
T 222
T 223
T 224
T 225
T 226
T 227
T 228
T 229
T 230
T 231
T 232
T 233
T 234
T 235
T 236
T 237
T 238
T 239
T 240
T 241
T 242
T 243
T 244
T 245
END

EOF
